sat
(:added-eqs                   37185
 :arith-eq-adapter            819
 :arith-bound-propagations-lp 2446
 :arith-conflicts             10
 :arith-diseq                 1934
 :arith-fixed-eqs             1671
 :arith-lower                 2836
 :arith-make-feasible         1878
 :arith-max-columns           448
 :arith-max-rows              180
 :arith-offset-eqs            291
 :arith-upper                 2912
 :binary-propagations         176659
 :conflicts                   1042
 :decisions                   32946
 :del-clause                  1609
 :elim-unconstrained          2
 :final-checks                1
 :max-memory                  25.02
 :memory                      20.70
 :minimized-lits              1552
 :mk-bool-var                 5545
 :mk-clause                   3704
 :mk-clause-binary            7359
 :num-allocs                  5554825
 :num-checks                  1
 :propagations                227552
 :restarts                    9
 :rlimit-count                5926584
 :time                        0.74
 :total-time                  0.83)
